Optimal - objective value 41.00000000
     24 x_1_35                   1                       0
     32 x_2_5                    1                       0
     69 x_3_21                   1                       0
     92 x_4_17                   1                       0
    129 x_5_26                   1                       0
    136 x_6_0                    1                       0
    181 x_7_17                   1                       0
    204 x_8_11                   1                       0
    246 x_9_39                   1                       0
    267 x_10_33                  1                       0
    300 x_11_41                  1         4.99999999999999
